<number of tasks>
50

<cycle time>
1000

<order strength>
0.897


<task times>
1 143
2 224
3 98
4 81
5 57
6 210
7 226
8 269
9 162
10 200
11 75
12 212
13 114
14 103
15 181
16 135
17 130
18 62
19 260
20 247
21 116
22 223
23 151
24 57
25 242
26 341
27 72
28 228
29 48
30 64
31 209
32 80
33 113
34 207
35 138
36 247
37 164
38 190
39 126
40 93
41 39
42 84
43 230
44 114
45 78
46 168
47 144
48 129
49 185
50 94

<precedence relations>
1,3
2,3
2,4
3,5
3,6
4,5
4,6
5,7
6,7
7,8
7,9
7,10
8,11
8,12
8,13
9,11
9,12
9,13
10,11
10,12
10,13
11,21
11,22
12,17
12,20
13,14
13,15
13,16
14,17
14,18
14,19
14,20
15,17
15,18
15,19
15,20
16,17
16,18
16,19
16,20
17,21
17,22
17,23
18,21
18,22
18,23
19,21
19,22
19,23
20,21
20,22
20,23
21,24
21,25
22,24
22,25
23,24
23,25
24,26
24,27
24,28
25,26
25,27
26,33
27,30
28,29
28,30
29,31
29,32
29,33
30,31
31,34
32,34
32,35
32,36
33,34
33,35
33,36
34,37
34,38
35,37
35,38
36,41
37,42
37,44
38,39
38,40
38,41
39,43
39,45
39,46
39,47
41,44
42,45
42,47
43,49
44,49
44,50
46,48
46,49
47,48
47,50

<end>
